
******************************************************************************
This program contains Ipopt, a library for large-scale nonlinear optimization.
 Ipopt is released as open source code under the Eclipse Public License (EPL).
         For more information visit http://projects.coin-or.org/Ipopt
******************************************************************************

This is Ipopt version trunk, running with linear solver mumps.
NOTE: Other linear solvers might be more efficient (see Ipopt documentation).

Number of nonzeros in equality constraint Jacobian...:   330624
Number of nonzeros in inequality constraint Jacobian.:        0
Number of nonzeros in Lagrangian Hessian.............:        0

Total number of variables............................:      656
                     variables with only lower bounds:        0
                variables with lower and upper bounds:      656
                     variables with only upper bounds:        0
Total number of equality constraints.................:      504
Total number of inequality constraints...............:        0
        inequality constraints with only lower bounds:        0
   inequality constraints with lower and upper bounds:        0
        inequality constraints with only upper bounds:        0

iter    objective    inf_pr   inf_du lg(mu)  ||d||  lg(rg) alpha_du alpha_pr  ls
   0  1.7910792e+00 2.72e+00 3.11e-01   0.0 0.00e+00    -  0.00e+00 0.00e+00   0
   1  6.5188831e+00 4.82e-02 7.27e-01  -1.0 7.37e-01    -  9.90e-01 1.00e+00h  1
   2  8.3167759e+00 5.81e-03 4.90e-01   0.9 7.00e-01    -  9.98e-01 1.00e+00H  1
   3  1.4361348e+01 6.69e-03 2.14e+00  -1.1 9.10e-01    -  9.98e-01 1.00e+00H  1
   4  1.5500408e+01 1.52e-03 1.82e+00  -2.9 2.44e-01    -  1.00e+00 1.00e+00H  1
   5  1.3952452e+01 2.55e-01 4.64e+00  -4.8 7.04e-01    -  1.00e+00 1.00e+00f  1
   6  1.0912824e+01 9.49e-02 1.82e+00  -4.9 3.29e-01    -  1.00e+00 1.00e+00f  1
   7  9.6595015e+00 1.46e-01 1.07e+00  -4.9 1.76e+00    -  1.00e+00 2.50e-01f  3
   8  1.2094076e+01 6.93e-02 3.51e+00  -4.9 3.91e-01    -  1.00e+00 1.00e+00h  1
   9  1.4390721e+01 4.22e-02 1.10e+00  -4.9 3.17e-01    -  1.00e+00 1.00e+00h  1
iter    objective    inf_pr   inf_du lg(mu)  ||d||  lg(rg) alpha_du alpha_pr  ls
  10  1.4711038e+01 4.20e-02 1.16e+00  -4.9 8.75e-01    -  1.00e+00 6.25e-02h  5
  11  1.4812221e+01 4.22e-02 1.22e+00  -4.9 7.95e-01    -  1.00e+00 6.25e-02h  5
  12  1.6603060e+01 3.60e-02 3.35e+01  -4.9 5.42e-01    -  1.00e+00 1.00e+00H  1
  13  1.4379475e+01 2.17e-02 7.70e+00  -4.9 2.35e-01    -  1.00e+00 1.00e+00f  1
  14  1.1811908e+01 7.74e-02 7.03e+00  -4.9 1.25e+00    -  1.00e+00 2.50e-01f  3
  15  1.1495102e+01 1.03e-01 4.53e+01  -4.9 7.78e-01    -  1.00e+00 1.00e+00F  1
  16  1.1273725e+01 9.74e-02 1.69e+01  -4.9 4.52e-01    -  1.00e+00 1.00e+00f  1
  17  1.1313161e+01 8.77e-02 1.43e+01  -4.9 9.68e-01    -  1.00e+00 1.25e-01h  4
  18  1.1964355e+01 7.66e-02 5.78e+00  -4.9 3.93e-01    -  1.00e+00 1.00e+00h  1
  19  1.1858518e+01 1.22e-02 2.37e+00  -4.9 1.62e-01    -  1.00e+00 1.00e+00h  1
iter    objective    inf_pr   inf_du lg(mu)  ||d||  lg(rg) alpha_du alpha_pr  ls
  20  1.1858052e+01 1.21e-02 2.52e+00  -4.9 1.22e+00    -  1.00e+00 3.12e-02f  6
  21  1.2478844e+01 2.05e-02 5.99e+00  -4.9 4.76e-01    -  1.00e+00 1.00e+00H  1
  22  1.1926020e+01 1.47e-02 2.21e+00  -4.9 2.67e-01    -  1.00e+00 1.00e+00f  1
  23  1.1250204e+01 7.89e-02 2.51e+00  -4.9 1.77e+00    -  1.00e+00 2.50e-01f  3
  24  1.2070407e+01 7.99e-03 7.39e+00  -4.9 6.43e-01    -  1.00e+00 1.00e+00H  1
  25  1.4386046e+01 3.16e-03 4.18e+00  -6.8 5.69e-01    -  1.00e+00 1.00e+00H  1
  26  1.5703291e+01 3.60e-03 8.63e+00  -8.6 6.29e-01    -  1.00e+00 1.00e+00H  1
  27  1.5705890e+01 3.68e-03 8.52e+00  -8.7 1.81e+00    -  1.00e+00 1.56e-02h  7
  28  1.5395626e+01 7.08e-02 8.03e+00  -8.7 3.08e+00    -  1.00e+00 1.25e-01f  4
  29  1.5338020e+01 7.19e-02 7.57e+00  -8.7 2.03e+00    -  1.00e+00 6.25e-02f  5
iter    objective    inf_pr   inf_du lg(mu)  ||d||  lg(rg) alpha_du alpha_pr  ls
  30  1.5115583e+01 9.15e-02 6.20e+00  -8.7 1.74e+00    -  1.00e+00 2.50e-01f  3
  31  1.5111953e+01 8.30e-02 5.58e+00  -8.7 9.78e-01    -  1.00e+00 1.25e-01f  4
  32  1.5155072e+01 8.04e-02 5.16e+00  -8.7 1.19e+00    -  1.00e+00 1.25e-01h  4
  33  1.5083660e+01 6.34e-02 3.59e+00  -8.7 7.01e-01    -  1.00e+00 2.50e-01f  3
  34  1.6012686e+01 1.89e-03 8.83e+00  -8.7 5.71e-01    -  1.00e+00 1.00e+00H  1
  35  1.5691511e+01 3.58e-02 4.09e+00 -10.6 2.98e-01    -  1.00e+00 1.00e+00f  1
  36  1.5255420e+01 1.84e-01 6.87e+00 -10.7 3.31e+00  -4.5 1.00e+00 1.25e-01f  4
  37  1.4932268e+01 2.45e-01 8.72e+00 -10.7 1.37e+00    -  1.00e+00 2.50e-01f  3
  38  2.3665719e+01 1.58e-01 2.32e+01 -10.7 1.21e+00    -  1.00e+00 1.00e+00H  1
  39  1.6202587e+01 1.73e-01 1.52e+01 -10.7 8.88e-01    -  1.00e+00 1.00e+00f  1
iter    objective    inf_pr   inf_du lg(mu)  ||d||  lg(rg) alpha_du alpha_pr  ls
  40  1.6699514e+01 8.74e-02 1.41e+01 -10.7 1.62e+00    -  1.00e+00 1.00e+00H  1
  41  1.5689756e+01 7.07e-01 5.10e+00 -10.7 1.50e+00  -5.0 1.00e+00 1.00e+00f  1
  42  1.7180083e+01 1.05e-01 1.10e+01 -10.7 1.83e+00    -  1.00e+00 1.00e+00H  1
  43  1.3180177e+01 3.67e-01 3.36e+00 -10.7 1.26e+00    -  1.00e+00 1.00e+00f  1
  44  1.4589146e+01 1.52e-01 2.21e+01 -10.7 2.09e+00    -  1.00e+00 1.00e+00H  1
  45  1.2329321e+01 2.39e-01 8.95e+00 -10.7 9.67e-01    -  1.00e+00 1.00e+00f  1
  46  1.2525877e+01 1.46e-02 7.71e+00 -10.7 1.52e+00    -  1.00e+00 1.00e+00H  1
  47  1.1460809e+01 1.15e-01 2.86e+00 -10.7 6.40e-01    -  1.00e+00 1.00e+00f  1
  48  1.1703932e+01 2.93e-03 1.49e+00 -10.7 6.89e-01    -  1.00e+00 1.00e+00H  1
  49  1.1378256e+01 4.21e-02 4.75e-01 -11.0 3.48e-01    -  1.00e+00 1.00e+00f  1
iter    objective    inf_pr   inf_du lg(mu)  ||d||  lg(rg) alpha_du alpha_pr  ls
  50  1.1291993e+01 3.84e-03 8.36e-02 -11.0 1.11e-01    -  1.00e+00 1.00e+00h  1
  51  1.1159892e+01 2.88e-03 9.18e-02 -11.0 8.19e-02    -  1.00e+00 1.00e+00h  1
  52  1.1019982e+01 1.67e-03 7.50e-02 -11.0 5.40e-02    -  1.00e+00 1.00e+00h  1
  53  1.0816193e+01 1.13e-02 1.61e-01 -11.0 1.75e-01    -  1.00e+00 1.00e+00h  1
  54  1.0944621e+01 3.03e-03 1.37e-01 -11.0 7.32e-02    -  1.00e+00 1.00e+00h  1
  55  1.2723118e+01 1.56e-03 1.25e+00 -11.0 3.94e-01    -  1.00e+00 1.00e+00H  1
  56  1.1862621e+01 1.85e-02 7.88e-01 -11.0 2.05e-01    -  1.00e+00 1.00e+00f  1
  57  1.0837101e+01 8.68e-02 2.68e+00 -11.0 5.09e-01    -  1.00e+00 1.00e+00f  1
  58  1.0811167e+01 2.78e-02 6.46e-01 -11.0 2.79e-01    -  1.00e+00 1.00e+00h  1
  59  1.1750867e+01 3.49e-03 2.14e+00 -11.0 2.24e-01    -  1.00e+00 1.00e+00H  1
iter    objective    inf_pr   inf_du lg(mu)  ||d||  lg(rg) alpha_du alpha_pr  ls
  60  1.1885963e+01 2.22e-04 8.23e-01 -11.0 1.73e-01    -  1.00e+00 1.00e+00H  1
  61  1.1466567e+01 3.54e-02 1.65e+00 -11.0 5.06e-01    -  1.00e+00 5.00e-01f  2
  62  1.0992205e+01 8.65e-03 3.64e-01 -11.0 1.34e-01    -  1.00e+00 1.00e+00h  1
  63  1.1610684e+01 1.62e-03 1.95e+00 -11.0 5.23e-01    -  1.00e+00 1.00e+00H  1
  64  1.1119883e+01 1.34e-03 1.41e+00 -11.0 2.79e-01    -  1.00e+00 1.00e+00F  1
  65  1.1352763e+01 1.83e-04 3.19e-01 -11.0 2.46e-01    -  1.00e+00 1.00e+00H  1
  66  1.1156955e+01 7.03e-03 1.97e-01 -11.0 1.53e-01    -  1.00e+00 1.00e+00f  1
  67  1.0992893e+01 2.10e-02 4.34e-01 -11.0 2.13e-01    -  1.00e+00 1.00e+00f  1
  68  1.1023510e+01 6.89e-03 2.06e-01 -11.0 1.34e-01    -  1.00e+00 1.00e+00h  1
  69  1.1287270e+01 2.58e-04 1.49e-01 -11.0 1.62e-01    -  1.00e+00 1.00e+00H  1
iter    objective    inf_pr   inf_du lg(mu)  ||d||  lg(rg) alpha_du alpha_pr  ls
  70  1.1148575e+01 2.71e-03 2.52e-02 -11.0 7.80e-02    -  1.00e+00 1.00e+00f  1
  71  1.1092863e+01 4.15e-04 1.96e-02 -11.0 3.10e-02    -  1.00e+00 1.00e+00h  1
  72  1.1095912e+01 4.29e-05 1.41e-02 -11.0 1.76e-02    -  1.00e+00 1.00e+00h  1
  73  1.1115828e+01 7.04e-06 2.77e-02 -11.0 3.84e-02    -  1.00e+00 1.00e+00H  1
  74  1.1112473e+01 3.64e-05 1.39e-02 -11.0 1.07e-02    -  1.00e+00 1.00e+00h  1
  75  1.1107389e+01 5.96e-05 1.38e-02 -11.0 3.28e-02    -  1.00e+00 1.00e+00h  1
  76  1.1098126e+01 1.54e-05 1.36e-02 -11.0 3.98e-02    -  1.00e+00 1.00e+00h  1
  77  1.1031377e+01 1.42e-03 5.55e-02 -11.0 5.26e-01    -  1.00e+00 1.00e+00h  1
  78  1.1111435e+01 1.73e-04 2.30e-01 -11.0 1.73e+00  -6.9 1.00e+00 1.00e+00H  1
  79  1.2286852e+01 1.32e-05 5.95e-01 -11.0 4.07e+00    -  1.00e+00 1.00e+00H  1
iter    objective    inf_pr   inf_du lg(mu)  ||d||  lg(rg) alpha_du alpha_pr  ls
  80  1.2272397e+01 1.75e-04 5.64e-01 -11.0 4.25e-01  -0.6 1.00e+00 6.25e-02f  5
  81  1.2240968e+01 2.09e-04 5.47e-01 -11.0 8.02e+00    -  1.00e+00 7.81e-03f  8
  82  1.2198663e+01 2.05e-04 5.43e-01 -11.0 5.31e+00    -  1.00e+00 1.56e-02f  7
  83  1.1842956e+01 1.70e-04 7.51e-01 -11.0 7.90e-01  -1.1 1.00e+00 1.00e+00F  1
  84  1.1332889e+01 7.66e-06 4.18e-01 -11.0 1.55e+00    -  1.00e+00 1.00e+00F  1
  85  1.1224566e+01 1.34e-02 4.28e-01 -11.0 5.32e+00    -  1.00e+00 1.25e-01f  4
  86  1.1411058e+01 1.88e-03 3.38e-01 -11.0 5.35e-01    -  1.00e+00 1.00e+00H  1
  87  1.1286208e+01 4.65e-03 2.08e-01 -11.0 1.23e-01    -  1.00e+00 1.00e+00f  1
  88  1.1366947e+01 1.59e-03 7.67e-01 -11.0 9.81e-01    -  1.00e+00 1.00e+00H  1
  89  1.1199719e+01 8.44e-03 3.47e-01 -11.0 1.87e-01    -  1.00e+00 1.00e+00f  1
iter    objective    inf_pr   inf_du lg(mu)  ||d||  lg(rg) alpha_du alpha_pr  ls
  90  1.1176403e+01 4.97e-02 5.28e-01 -11.0 1.06e+00    -  1.00e+00 1.00e+00f  1
  91  1.1109516e+01 8.34e-03 1.92e-01 -11.0 1.79e-01  -0.7 1.00e+00 1.00e+00h  1
  92  1.1247299e+01 5.97e-04 2.93e-01 -11.0 4.12e-01    -  1.00e+00 1.00e+00H  1
  93  1.1189638e+01 7.99e-03 7.36e-02 -11.0 1.66e-01    -  1.00e+00 1.00e+00f  1
  94  1.1179057e+01 1.87e-03 6.18e-02 -11.0 6.14e-02    -  1.00e+00 1.00e+00h  1
  95  1.1150261e+01 6.25e-04 6.22e-02 -11.0 4.30e-02    -  1.00e+00 1.00e+00h  1
  96  1.1104537e+01 2.60e-03 1.06e-01 -11.0 9.35e-02    -  1.00e+00 1.00e+00h  1
  97  1.1106396e+01 1.04e-03 8.84e-02 -11.0 3.90e-02    -  1.00e+00 1.00e+00h  1
  98  1.1237439e+01 1.05e-04 5.67e-01 -11.0 1.65e-01    -  1.00e+00 1.00e+00H  1
  99  1.1172995e+01 9.69e-05 6.40e-02 -11.0 5.70e-02    -  1.00e+00 1.00e+00F  1
iter    objective    inf_pr   inf_du lg(mu)  ||d||  lg(rg) alpha_du alpha_pr  ls
 100  1.1143645e+01 4.21e-04 5.23e-02 -11.0 8.57e-02    -  1.00e+00 1.00e+00H  1
 101  1.1135874e+01 1.23e-04 2.36e-02 -11.0 1.74e-02    -  1.00e+00 1.00e+00h  1
 102  1.1149173e+01 2.08e-05 3.68e-02 -11.0 5.10e-02    -  1.00e+00 1.00e+00H  1
 103  1.1143839e+01 1.60e-04 1.21e-02 -11.0 2.61e-02    -  1.00e+00 1.00e+00h  1
 104  1.1140753e+01 1.09e-04 9.29e-03 -11.0 1.81e-02    -  1.00e+00 1.00e+00h  1
 105  1.1138765e+01 7.93e-06 6.40e-03 -11.0 9.75e-03    -  1.00e+00 1.00e+00h  1

Number of Iterations....: 105

                                   (scaled)                 (unscaled)
Objective...............:   1.1138765308756467e+01    1.1138765308756467e+01
Dual infeasibility......:   6.4005579296032636e-03    6.4005579296032636e-03
Constraint violation....:   6.9708021629181289e-06    7.9313572411976452e-06
Complementarity.........:   1.0000000000000003e-11    1.0000000000000003e-11
Overall NLP error.......:   6.4005579296032636e-03    6.4005579296032636e-03


Number of objective function evaluations             = 290
Number of objective gradient evaluations             = 106
Number of equality constraint evaluations            = 290
Number of inequality constraint evaluations          = 0
Number of equality constraint Jacobian evaluations   = 106
Number of inequality constraint Jacobian evaluations = 0
Number of Lagrangian Hessian evaluations             = 0
Total CPU secs in IPOPT (w/o function evaluations)   =     82.235
Total CPU secs in NLP function evaluations           =     29.536

EXIT: Optimal Solution Found.
